p cnf 20 44
a 9 4 0
e 1 2 3 5 6 7 8 10 11 12 13 14 15 16 17 18 19 20 0
1 -2 -3 0
-1 2 -3 0
1 2 3 0
-1 -2 3 0
-7 5 0
-7 -6 0
-5 6 7 0
8 -4 0
8 -7 0
4 7 -8 0
-10 -2 0
-10 -9 0
2 9 10 0
-11 8 0
-11 10 0
-8 -10 11 0
-13 -12 0
-13 6 0
12 -6 13 0
14 -11 0
14 -13 0
11 13 -14 0
7 15 -16 0
-7 -15 -16 0
7 -15 16 0
-7 15 16 0
14 -16 -17 0
-14 16 -17 0
14 16 17 0
-14 -16 17 0
-18 -3 0
-18 -17 0
3 17 18 0
19 -5 0
19 -7 0
5 7 -19 0
-20 -18 0
-20 -19 0
18 19 20 0
-15 -1 6 14 19 -10 0
-13 4 -18 14 0
-7 15 2 -17 1 14 0
11 -1 5 0
20 0
